%SETS
JOBS = 1..5;
MACHINES = 1..50;
SPEED    = 3;

time = array3d(JOBS,MACHINES,1..SPEED,[38, 9, 6, 17, 4, 3, 1, 1, 1, 2, 1, 1, 3, 1, 1, 7, 1, 1, 86, 21, 15, 25, 6, 4, 43, 10, 7, 21, 5, 3, 26, 6, 4, 43, 10, 7, 67, 16, 12, 63, 15, 11, 45, 11, 8, 2, 1, 1, 11, 2, 2, 1, 1, 1, 20, 5, 3, 41, 10, 7, 1, 1, 1, 5, 1, 1, 11, 2, 2, 7, 1, 1, 41, 10, 7, 11, 2, 2, 26, 6, 4, 17, 4, 3, 22, 5, 4, 72, 17, 13, 74, 18, 13, 3, 1, 1, 48, 11, 8, 10, 2, 1, 2, 1, 1, 12, 3, 2, 18, 4, 3, 84, 20, 15, 12, 2, 2, 1, 1, 1, 50, 12, 9, 3, 1, 1, 16, 4, 3, 49, 12, 8, 18, 4, 3, 15, 3, 2, 41, 10, 7, 1, 1, 1, 21, 5, 3, 13, 3, 2, 108, 26, 19, 41, 10, 7, 1, 1, 1, 5, 1, 1, 15, 3, 2, 31, 7, 5, 10, 2, 1, 11, 2, 2, 65, 16, 11, 79, 19, 14, 13, 3, 2, 59, 14, 10, 10, 2, 1, 2, 1, 1, 19, 4, 3, 27, 6, 5, 57, 14, 10, 86, 21, 15, 38, 9, 6, 36, 9, 6, 32, 7, 5, 31, 7, 5, 37, 9, 6, 94, 23, 17, 12, 2, 2, 2, 1, 1, 7, 1, 1, 6, 1, 1, 11, 2, 2, 43, 10, 7, 1, 1, 1, 15, 3, 2, 43, 10, 7, 7, 1, 1, 1, 1, 1, 7, 1, 1, 2, 1, 1, 42, 10, 7, 4, 1, 1, 5, 1, 1, 43, 10, 7, 43, 10, 7, 23, 5, 4, 63, 15, 11, 1, 1, 1, 86, 21, 15, 21, 5, 3, 9, 2, 1, 45, 11, 8, 27, 6, 5, 111, 27, 20, 2, 1, 1, 22, 5, 4, 16, 4, 2, 27, 6, 4, 7, 1, 1, 1, 1, 1, 20, 4, 3, 11, 2, 2, 57, 14, 10, 15, 3, 2, 14, 3, 2, 25, 6, 4, 19, 4, 3, 84, 20, 15, 40, 9, 7, 17, 4, 3, 6, 1, 1, 23, 5, 4, 35, 8, 6, 36, 8, 6, 130, 31, 23, 6, 1, 1, 14, 3, 2, 14, 3, 2, 9, 2, 1, 11, 2, 2, 16, 4, 3, 20, 4, 3, 7, 1, 1, 3, 1, 1, 9, 2, 1, 3, 1, 1, 9, 2, 1, 29, 7, 5, 23, 5, 4, 152, 37, 27, 21, 5, 3, 20, 5, 3, 26, 6, 4, 33, 8, 6, 24, 6, 4, 22, 5, 4, 24, 5, 4, 11, 2, 2, 38, 9, 6, 24, 5, 4, 9, 2, 1, 7, 1, 1, 1, 1, 1, 11, 2, 1, 1, 1, 1, 4, 1, 1, 1, 1, 1, 8, 2, 1, 11, 2, 1, 23, 5, 4, 38, 9, 6, 25, 6, 4, 4, 1, 1, 58, 14, 10, 33, 8, 6, 17, 4, 3, 26, 6, 4, 18, 4, 3, 4, 1, 1, 26, 6, 4, 114, 28, 20, 38, 9, 6, 5, 1, 1, 3, 1, 1, 68, 16, 12, 62, 15, 11, 35, 8, 6, 36, 9, 6, 3, 1, 1, 43, 10, 7, 5, 1, 1, 4, 1, 1, 13, 3, 2, 1, 1, 1, 48, 11, 8, 4, 1, 1, 34, 8, 6, 22, 5, 4, 38, 9, 6, 23, 5, 4, 84, 20, 15, 12, 3, 2, 17, 4, 3, 10, 2, 1, 35, 8, 6, 9, 2, 1, 41, 10, 7, 2, 1, 1, 6, 1, 1, 14, 3, 2, 3, 1, 1, 5, 1, 1, 47, 11, 8, 12, 2, 2, 6, 1, 1, 48, 11, 8, 22, 5, 3, 25, 6, 4, 56, 13, 10, 32, 7, 5, 7, 1, 1, 1, 1, 1, 20, 5, 3, 31, 7, 5, 42, 10, 7, 5, 1, 1, 26, 6, 4, 72, 17, 12, 7, 1, 1, 8, 2, 1, 14, 3, 2, 21, 5, 3, 119, 29, 21, 22, 5, 4, 56, 13, 10, 27, 6, 4, 16, 4, 2, 9, 2, 1, 11, 2, 2, 38, 9, 6, 5, 1, 1, 3, 1, 1, 6, 1, 1, 28, 7, 5, 12, 2, 2, 5, 1, 1, 10, 2, 1, 2, 1, 1, 14, 3, 2, 43, 10, 7, 15, 3, 2, 15, 3, 2, 1, 1, 1, 8, 2, 1, 2, 1, 1, 1, 1, 1, 51, 12, 9, 32, 7, 5, 45, 11, 8, 3, 1, 1, 11, 2, 2, 63, 15, 11, 14, 3, 2]);
energy = array3d(JOBS,MACHINES,1..SPEED,[68, 91, 94, 84, 96, 97, 99, 99, 99, 98, 99, 99, 97, 99, 99, 93, 99, 99, 42, 81, 86, 77, 94, 96, 65, 90, 93, 81, 95, 97, 77, 94, 96, 65, 90, 93, 51, 85, 88, 53, 86, 89, 63, 89, 92, 98, 99, 99, 89, 98, 98, 99, 99, 99, 81, 95, 97, 66, 90, 93, 99, 99, 99, 95, 99, 99, 89, 98, 98, 93, 99, 99, 66, 90, 93, 89, 98, 98, 77, 94, 96, 84, 96, 97, 80, 95, 96, 48, 84, 87, 47, 83, 87, 97, 99, 99, 61, 89, 92, 90, 98, 99, 98, 99, 99, 88, 97, 98, 83, 96, 97, 43, 81, 86, 88, 98, 98, 99, 99, 99, 60, 88, 91, 97, 99, 99, 85, 96, 97, 61, 88, 92, 83, 96, 97, 86, 97, 98, 66, 90, 93, 99, 99, 99, 81, 95, 97, 87, 97, 98, 33, 77, 82, 66, 90, 93, 99, 99, 99, 95, 99, 99, 86, 97, 98, 73, 93, 95, 90, 98, 99, 89, 98, 98, 52, 85, 89, 45, 82, 86, 87, 97, 98, 55, 86, 90, 90, 98, 99, 98, 99, 99, 82, 96, 97, 76, 94, 95, 56, 86, 90, 42, 81, 86, 68, 91, 94, 69, 91, 94, 72, 93, 95, 73, 93, 95, 69, 91, 94, 39, 79, 84, 88, 98, 98, 98, 99, 99, 93, 99, 99, 94, 99, 99, 89, 98, 98, 65, 90, 93, 99, 99, 99, 86, 97, 98, 65, 90, 93, 93, 99, 99, 99, 99, 99, 93, 99, 99, 98, 99, 99, 65, 90, 93, 96, 99, 99, 95, 99, 99, 65, 90, 93, 65, 90, 93, 79, 95, 96, 53, 86, 89, 99, 99, 99, 42, 81, 86, 81, 95, 97, 91, 98, 99, 63, 89, 92, 76, 94, 95, 32, 76, 81, 98, 99, 99, 80, 95, 96, 85, 96, 98, 76, 94, 96, 93, 99, 99, 99, 99, 99, 81, 96, 97, 89, 98, 98, 56, 86, 90, 86, 97, 98, 86, 97, 98, 77, 94, 96, 82, 96, 97, 43, 81, 86, 67, 91, 93, 84, 96, 97, 94, 99, 99, 79, 95, 96, 70, 92, 94, 69, 92, 94, 27, 73, 79, 94, 99, 99, 86, 97, 98, 86, 97, 98, 91, 98, 99, 89, 98, 98, 85, 96, 97, 81, 96, 97, 93, 99, 99, 97, 99, 99, 91, 98, 99, 97, 99, 99, 91, 98, 99, 74, 93, 95, 79, 95, 96, 21, 69, 76, 81, 95, 97, 81, 95, 97, 77, 94, 96, 71, 92, 94, 78, 94, 96, 80, 95, 96, 78, 95, 96, 89, 98, 98, 68, 91, 94, 78, 95, 96, 91, 98, 99, 93, 99, 99, 99, 99, 99, 89, 98, 99, 99, 99, 99, 96, 99, 99, 99, 99, 99, 92, 98, 99, 89, 98, 99, 79, 95, 96, 68, 91, 94, 77, 94, 96, 96, 99, 99, 55, 86, 90, 71, 92, 94, 84, 96, 97, 77, 94, 96, 83, 96, 97, 96, 99, 99, 77, 94, 96, 31, 75, 81, 68, 91, 94, 95, 99, 99, 97, 99, 99, 50, 85, 88, 53, 86, 89, 70, 92, 94, 69, 91, 94, 97, 99, 99, 65, 90, 93, 95, 99, 99, 96, 99, 99, 87, 97, 98, 99, 99, 99, 61, 89, 92, 96, 99, 99, 71, 92, 94, 80, 95, 96, 68, 91, 94, 79, 95, 96, 43, 81, 86, 88, 97, 98, 84, 96, 97, 90, 98, 99, 70, 92, 94, 91, 98, 99, 66, 90, 93, 98, 99, 99, 94, 99, 99, 86, 97, 98, 97, 99, 99, 95, 99, 99, 62, 89, 92, 88, 98, 98, 94, 99, 99, 61, 89, 92, 80, 95, 97, 77, 94, 96, 57, 87, 90, 72, 93, 95, 93, 99, 99, 99, 99, 99, 81, 95, 97, 73, 93, 95, 65, 90, 93, 95, 99, 99, 77, 94, 96, 48, 84, 88, 93, 99, 99, 92, 98, 99, 86, 97, 98, 81, 95, 97, 30, 74, 81, 80, 95, 96, 57, 87, 90, 76, 94, 96, 85, 96, 98, 91, 98, 99, 89, 98, 98, 68, 91, 94, 95, 99, 99, 97, 99, 99, 94, 99, 99, 75, 93, 95, 88, 98, 98, 95, 99, 99, 90, 98, 99, 98, 99, 99, 86, 97, 98, 65, 90, 93, 86, 97, 98, 86, 97, 98, 99, 99, 99, 92, 98, 99, 98, 99, 99, 99, 99, 99, 60, 88, 91, 72, 93, 95, 63, 89, 92, 97, 99, 99, 89, 98, 98, 53, 86, 89, 86, 97, 98]);
precedence = array2d(JOBS,MACHINES,[17, 13, 2, 40, 3, 39, 38, 21, 1, 44, 18, 35, 5, 19, 16, 29, 46, 47, 36, 23, 7, 27, 12, 28, 4, 15, 41, 0, 48, 33, 34, 30, 24, 31, 42, 10, 8, 22, 45, 14, 9, 37, 32, 26, 20, 49, 25, 11, 6, 43, 44, 34, 27, 7, 39, 9, 3, 40, 31, 35, 25, 19, 12, 13, 18, 6, 20, 37, 29, 8, 30, 23, 33, 41, 17, 38, 14, 32, 21, 1, 43, 10, 15, 46, 11, 28, 24, 47, 0, 45, 2, 26, 42, 16, 4, 5, 22, 48, 49, 36, 7, 33, 0, 37, 49, 22, 21, 14, 45, 30, 41, 1, 13, 16, 18, 12, 40, 6, 9, 3, 24, 35, 39, 23, 5, 42, 43, 46, 10, 25, 28, 20, 44, 48, 17, 15, 36, 26, 2, 27, 34, 19, 8, 11, 47, 29, 31, 32, 4, 38, 11, 38, 24, 33, 16, 27, 35, 42, 26, 4, 41, 6, 48, 3, 28, 2, 39, 45, 8, 5, 36, 22, 19, 20, 7, 47, 29, 17, 0, 31, 32, 44, 30, 23, 37, 49, 10, 21, 1, 34, 13, 25, 40, 18, 12, 46, 15, 9, 14, 43, 43, 24, 33, 12, 16, 2, 30, 0, 45, 10, 21, 7, 46, 25, 19, 39, 38, 26, 40, 1, 34, 31, 13, 44, 28, 18, 36, 8, 4, 23, 11, 20, 27, 41, 22, 15, 9, 14, 29, 3, 17, 6, 42, 5, 35, 49, 37, 32, 48, 47]);